12527648974
12527577023
12527648974
12527577023
12527577023
12527577023
12527685765
12527577023
12527577023
12527577023
2327027614
2326983288
2327788267
2327027614
2327027614
2326983288
2326983288
2327531119
2327317932
2326983288
2292213137
2292212691
2292212691
2292212691
2292212691
2292213137
2292213137
2292212691
2292213137
2292213137
2603868117
2603868117
2603868117
2603868117
2603868117
2603868117
2603868117
2603868117
2603868117
2603868117
2311833032
2311833032
2311833032
2311833032
2311859092
2311833032
2311833032
2311833032
2311918194
2311833032
2369351887
2369797250
2369351887
2369356392
2369351887
2369543718
2369351887
2369351887
2369351887
2369351887
